p edge 30 92 10
v 4 5 11 19 28
v 6 6 7 8 22 24 29
v 3 1 9 12
v 1 16
v 5 4 14 20 25 26
v 2 15 17
v 3 2 3 18
v 2 13 30
v 2 21 27
v 2 10 23
e 1 3
e 1 10
e 1 12
e 1 19
e 1 21
e 2 5
e 2 12
e 2 16
e 2 18
e 2 20
e 2 22
e 2 28
e 3 8
e 3 9
e 3 13
e 3 19
e 4 10
e 4 16
e 4 18
e 4 20
e 4 28
e 4 29
e 5 14
e 5 15
e 5 21
e 5 30
e 6 9
e 6 20
e 6 30
e 7 9
e 7 15
e 7 16
e 7 17
e 7 22
e 7 23
e 7 25
e 7 26
e 8 14
e 8 16
e 8 18
e 8 26
e 8 27
e 9 16
e 9 17
e 9 19
e 9 25
e 9 28
e 10 11
e 10 12
e 10 21
e 10 22
e 10 26
e 10 30
e 11 19
e 11 23
e 11 28
e 12 14
e 12 17
e 12 18
e 12 27
e 12 28
e 13 20
e 13 25
e 13 26
e 13 28
e 14 17
e 14 22
e 14 24
e 15 22
e 15 25
e 15 29
e 16 18
e 16 21
e 16 29
e 17 20
e 17 21
e 17 23
e 17 25
e 17 26
e 18 19
e 18 21
e 19 23
e 19 26
e 20 27
e 20 29
e 20 30
e 21 29
e 22 27
e 24 30
e 25 29
e 26 27
e 27 29
